nbNodes = 12;
nbVehi = 5;
nbServi = 5;

e = 
 [|    0,  208,  113,   28,  298,  140,  301,   52,   50,  471,  110,    0,
 |    0,  302,  137,  308,  251,  252,  460,  389,    7,  399,  247,    0,
 |    0,  451,  371,  236,   86,  169,  377,  404,   44,  127,  254,    0,
 |    0,   87,  404,  340,  443,  235,  363,  291,  258,  209,  273,    0,
 |    0,   89,  384,  232,  259,  258,  288,  296,  356,  142,  444,    0,
 |];

l = 
 [| 480, 266, 157,  86, 330, 185, 352,  87, 102, 504, 167, 480,
 | 480, 360, 185, 364, 283, 310, 498, 422,  38, 457, 295, 480,
 | 480, 487, 422, 267, 126, 216, 428, 435,  86, 158, 284, 480,
 | 480, 118, 454, 396, 476, 289, 393, 346, 299, 241, 331, 480,
 | 480, 145, 414, 287, 308, 313, 339, 350, 413, 202, 484, 480,
 |];

a = 
 [|  1,  0,  0,  0,  0,
 |  0,  1,  0,  0,  0,
 |  0,  0,  1,  0,  0,
 |  0,  0,  0,  1,  0,
 |  0,  0,  0,  0,  1,
 |];

p = array3d(1..nbNodes,1..nbVehi,1..nbServi,
[  0,  0,  0,  0,  0,	  0,  0,  0,  0,  0,	  0,  0,  0,  0,  0,	  0,  0,  0,  0,  0,	  0,  0,  0,  0,  0,	
 18, 23, 16, 16,  8,	 19, 17, 26, 29, 27,	 27,  5,  7,  5,  6,	 27, 20, 24, 15, 26,	  9, 11, 20, 21, 24,	
 25, 16,  5,  9, 18,	 17, 22, 11,  5, 10,	 17, 22, 24, 13, 21,	 23, 12, 23, 28, 12,	 27, 25, 27, 21, 10,	
 25, 25, 18, 15, 18,	 14, 13,  7, 15, 17,	 20, 27, 11, 29, 28,	 18, 16, 20, 12, 26,	 13,  6,  9,  6, 29,	
 18, 28, 26, 16, 22,	  9, 13, 19, 22, 26,	  8,  7,  9, 10, 19,	 23, 27, 16,  6, 26,	 14, 19, 14,  6, 26,	
 11, 14, 27, 17, 16,	 28,  5, 16, 25, 18,	  8,  6, 27, 23, 25,	 23, 28, 27, 29, 10,	 18, 22,  7,  5, 23,	
 29, 16, 12, 13, 18,	 10, 21, 29, 10,  8,	 17,  8, 11, 29,  5,	 24,  9,  8, 23, 29,	 29, 18, 27, 28, 17,	
  7, 17, 11, 12, 17,	  6, 11,  5, 15, 21,	 18, 21, 13, 20, 28,	 18,  7,  8, 24,  6,	  9, 21, 13, 12, 16,	
 12, 13,  5, 12, 12,	 19, 16, 24, 26, 23,	 13, 29,  6, 13, 17,	 23, 29, 10,  6, 19,	  8, 21, 21, 11, 16,	
 25, 17,  9,  8, 27,	 20, 17, 10, 22, 26,	 17, 12, 15, 13, 10,	 10, 21, 11, 12,  5,	 23,  5, 29, 28,  8,	
 18,  6, 24,  9, 15,	 12, 29, 27, 18,  9,	 24, 11, 24,  7, 28,	 20, 19, 12,  7, 28,	 17, 13, 21, 26, 20,	
  0,  0,  0,  0,  0,	  0,  0,  0,  0,  0,	  0,  0,  0,  0,  0,	  0,  0,  0,  0,  0,	  0,  0,  0,  0,  0,	
]);

rs = 
[|true,true,true,true,true,
 |false,false,false,false,true,
 |false,false,true,false,false,
 |true,false,false,false,false,
 |false,false,false,true,false,
 |false,false,true,false,false,
 |false,false,false,true,false,
 |false,true,false,false,false,
 |false,false,false,true,false,
 |true,false,false,false,false,
 |false,true,false,false,false,
 |true,true,true,true,true,
 |];

d=[|0, 23, 0, 13, 28, 25, 14, 22, 6, 11, 21, 0, 
|23, 0, 23, 30, 17, 8, 15, 17, 26, 21, 14, 23, 
|0, 23, 0, 13, 28, 25, 14, 22, 6, 11, 21, 0, 
|13, 30, 13, 0, 27, 28, 26, 21, 7, 9, 32, 13, 
|28, 17, 28, 27, 0, 9, 29, 6, 27, 19, 31, 28, 
|25, 8, 25, 28, 9, 0, 22, 9, 25, 18, 22, 25, 
|14, 15, 14, 26, 29, 22, 0, 26, 20, 21, 6, 14, 
|22, 17, 22, 21, 6, 9, 26, 0, 21, 13, 28, 22, 
|6, 26, 6, 7, 27, 25, 20, 21, 0, 8, 26, 6, 
|11, 21, 11, 9, 19, 18, 21, 13, 8, 0, 26, 11, 
|21, 14, 21, 32, 31, 22, 6, 28, 26, 26, 0, 21, 
|0, 23, 0, 13, 28, 25, 14, 22, 6, 11, 21, 0, 
|];

%coord=[ (0,0), (-8,-22), (0,0), (13,0), (9,-27), (0,-25), (-13,-7), (9,-21), (6,0), (8,-8), (-18,-11), (0,0), ];

